p cnf 18 24
-6 -14 -10 -17 0
-3 -14 -11 -17 0
-16 18 -13 0
-5 -18 -9 0
-6 -11 -18 0
-5 -10 -18 0
-7 -2 -18 0
-10 -18 -2 0
-16 -14 19 0
-7 -3 -19 0
-7 -4 -19 0
-8 -6 -19 0
-19 -6 -11 0
20 -3 -18 0
-20 -9 0
-20 -11 0
-7 -20 0
-8 -20 0
-20 -10 0
-4 21 -18 0
-21 -9 0
-8 -21 0
-21 -11 0
-7 -21 0
